
******************************************************************************
This program contains Ipopt, a library for large-scale nonlinear optimization.
 Ipopt is released as open source code under the Eclipse Public License (EPL).
         For more information visit http://projects.coin-or.org/Ipopt
******************************************************************************

NOTE: You are using Ipopt by default with the MUMPS linear solver.
      Other linear solvers might be more efficient (see Ipopt documentation).


This is Ipopt version 3.10.2, running with linear solver mumps.

Number of nonzeros in equality constraint Jacobian...:        0
Number of nonzeros in inequality constraint Jacobian.:     2450
Number of nonzeros in Lagrangian Hessian.............:        0

Total number of variables............................:       35
                     variables with only lower bounds:        0
                variables with lower and upper bounds:       35
                     variables with only upper bounds:        0
Total number of equality constraints.................:        0
Total number of inequality constraints...............:       70
        inequality constraints with only lower bounds:        0
   inequality constraints with lower and upper bounds:       70
        inequality constraints with only upper bounds:        0

iter    objective    inf_pr   inf_du lg(mu)  ||d||  lg(rg) alpha_du alpha_pr  ls
   0 -2.5968877e+01 1.50e-02 3.99e-02   0.0 0.00e+00    -  0.00e+00 0.00e+00   0
   1 -2.5932587e+01 1.49e-02 1.72e+01  -0.6 2.18e-01    -  9.91e-01 4.00e-01h  1
   2 -2.5924865e+01 1.45e-02 4.59e+03  -0.3 3.20e+00    -  8.79e-01 3.12e-02h  1
   3 -2.6283453e+01 2.19e-05 2.79e+03  -0.3 1.92e+01    -  4.16e-01 9.90e-01h  1
   4 -2.5661279e+01 0.00e+00 3.81e+01   0.1 4.61e+01    -  9.89e-01 9.90e-01h  1
   5 -2.6830971e+01 0.00e+00 1.87e+00   0.0 1.41e+01    -  1.00e+00 1.00e+00h  1
